p tw 76 85
1 2
2 13
3 4
4 5
5 6
6 7
7 8
8 9
9 10
10 11
11 12
12 14
12 15
13 24
14 73
15 16
16 17
17 18
18 19
19 20
20 21
20 34
21 22
22 23
23 25
24 35
25 26
26 27
27 28
28 29
28 31
29 30
30 31
30 39
31 32
32 33
33 22
34 36
35 46
36 37
37 38
38 41
39 40
40 41
41 42
42 43
43 44
43 70
44 45
44 70
45 47
46 57
47 48
48 49
49 50
50 51
51 52
52 53
53 54
54 55
55 56
55 64
56 58
57 68
58 59
58 64
59 60
60 61
60 64
61 62
61 64
62 63
63 49
64 65
65 66
66 67
67 69
68 75
69 18
70 71
71 72
72 73
73 74
75 76
76 3
